NAME 
ROWS
 N  OBJ
 L  R0      
 L  R1      
 E  R2      
 E  R3      
 E  R4      
 E  R5      
 E  R6      
 E  R7      
 E  R8      
 E  R9      
 E  R10     
 E  R11     
 E  R12     
 E  R13     
 E  R14     
 E  R15     
 E  R16     
 E  R17     
 E  R18     
 E  R19     
 E  R20     
 E  R21     
COLUMNS
    MARKER    'MARKER'                 'INTORG'
    I0(11)    OBJ       -108
    I0(11)    R0        192
    I0(11)    R1        -60
    I0(11)    R3        6
    I0(11)    R5        15
    I0(11)    R6        6
    I0(11)    R7        17
    I0(11)    R8        14
    I0(11)    R9        19
    I0(11)    R10       16
    I0(11)    R13       19
    I0(11)    R21       1
    I1(8)     OBJ       190
    I1(8)     R0        -26
    I1(8)     R1        99
    I1(8)     R5        -1
    I1(8)     R6        5
    I1(8)     R8        17
    I1(8)     R11       19
    I1(8)     R13       18
    I1(8)     R21       1
    I2(12)    OBJ       111
    I2(12)    R0        172
    I2(12)    R1        -43
    I2(12)    R2        16
    I2(12)    R3        6
    I2(12)    R4        -1
    I2(12)    R5        16
    I2(12)    R6        6
    I2(12)    R7        15
    I2(12)    R8        9
    I2(12)    R9        15
    I2(12)    R10       12
    I2(12)    R21       1
    I3(10)    OBJ       131
    I3(10)    R0        29
    I3(10)    R1        105
    I3(10)    R2        7
    I3(10)    R3        5
    I3(10)    R4        14
    I3(10)    R5        19
    I3(10)    R6        11
    I3(10)    R8        3
    I3(10)    R10       11
    I3(10)    R21       1
    I4(13)    OBJ       9
    I4(13)    R0        65
    I4(13)    R1        -195
    I4(13)    R2        13
    I4(13)    R3        7
    I4(13)    R4        -1
    I4(13)    R5        17
    I4(13)    R7        12
    I4(13)    R8        2
    I4(13)    R9        12
    I4(13)    R11       15
    I4(13)    R12       9
    I4(13)    R13       11
    I4(13)    R21       1
    I5(10)    OBJ       -17
    I5(10)    R0        -137
    I5(10)    R1        -43
    I5(10)    R4        11
    I5(10)    R5        4
    I5(10)    R6        4
    I5(10)    R7        5
    I5(10)    R10       7
    I5(10)    R11       19
    I5(10)    R12       -1
    I5(10)    R21       1
    I6(14)    OBJ       6
    I6(14)    R0        161
    I6(14)    R1        108
    I6(14)    R2        7
    I6(14)    R3        16
    I6(14)    R4        1
    I6(14)    R5        10
    I6(14)    R7        2
    I6(14)    R8        14
    I6(14)    R9        11
    I6(14)    R10       2
    I6(14)    R11       2
    I6(14)    R12       5
    I6(14)    R13       3
    I6(14)    R21       1
    I7(9)     OBJ       18
    I7(9)     R0        169
    I7(9)     R1        143
    I7(9)     R3        14
    I7(9)     R4        5
    I7(9)     R5        8
    I7(9)     R8        -1
    I7(9)     R10       2
    I7(9)     R13       11
    I7(9)     R21       1
    I8(10)    OBJ       171
    I8(10)    R0        -14
    I8(10)    R1        136
    I8(10)    R2        3
    I8(10)    R3        7
    I8(10)    R4        19
    I8(10)    R5        3
    I8(10)    R6        19
    I8(10)    R7        16
    I8(10)    R9        11
    I8(10)    R21       1
    I9(10)    OBJ       119
    I9(10)    R0        45
    I9(10)    R1        -132
    I9(10)    R3        11
    I9(10)    R4        18
    I9(10)    R5        15
    I9(10)    R9        4
    I9(10)    R10       9
    I9(10)    R12       9
    I9(10)    R13       11
    I9(10)    R21       1
    I10(13)   OBJ       140
    I10(13)   R0        17
    I10(13)   R1        -24
    I10(13)   R2        12
    I10(13)   R3        3
    I10(13)   R4        14
    I10(13)   R5        7
    I10(13)   R6        2
    I10(13)   R7        1
    I10(13)   R8        13
    I10(13)   R9        11
    I10(13)   R10       9
    I10(13)   R11       14
    I10(13)   R21       1
    I11(10)   OBJ       192
    I11(10)   R0        36
    I11(10)   R1        -122
    I11(10)   R3        13
    I11(10)   R5        15
    I11(10)   R6        19
    I11(10)   R8        16
    I11(10)   R9        10
    I11(10)   R10       17
    I11(10)   R13       17
    I11(10)   R21       1
    MARKER    'MARKER'                 'INTEND'
    C12(13)   OBJ       -2
    C12(13)   R0        -4
    C12(13)   R1        8
    C12(13)   R2        16
    C12(13)   R4        8
    C12(13)   R5        3
    C12(13)   R6        14
    C12(13)   R7        19
    C12(13)   R11       17
    C12(13)   R12       14
    C12(13)   R13       8
    C12(13)   R14       10
    C12(13)   R19       11
    C12(13)   R20       2
    C13(14)   OBJ       3
    C13(14)   R0        9
    C13(14)   R1        3
    C13(14)   R3        6
    C13(14)   R4        16
    C13(14)   R6        13
    C13(14)   R7        1
    C13(14)   R10       8
    C13(14)   R14       16
    C13(14)   R15       11
    C13(14)   R16       9
    C13(14)   R17       11
    C13(14)   R18       4
    C13(14)   R19       14
    C13(14)   R20       14
    C14(15)   OBJ       -1
    C14(15)   R0        6
    C14(15)   R1        -4
    C14(15)   R4        14
    C14(15)   R5        14
    C14(15)   R7        17
    C14(15)   R8        9
    C14(15)   R9        5
    C14(15)   R10       8
    C14(15)   R11       16
    C14(15)   R12       5
    C14(15)   R13       2
    C14(15)   R15       14
    C14(15)   R17       8
    C14(15)   R18       19
    C14(15)   R20       7
    C15(17)   OBJ       -7
    C15(17)   R0        2
    C15(17)   R1        -10
    C15(17)   R2        10
    C15(17)   R3        5
    C15(17)   R4        5
    C15(17)   R5        1
    C15(17)   R6        16
    C15(17)   R7        19
    C15(17)   R8        5
    C15(17)   R9        18
    C15(17)   R10       9
    C15(17)   R11       15
    C15(17)   R14       12
    C15(17)   R15       8
    C15(17)   R17       16
    C15(17)   R18       2
    C15(17)   R20       12
    C16(11)   OBJ       4
    C16(11)   R0        4
    C16(11)   R1        6
    C16(11)   R3        3
    C16(11)   R5        2
    C16(11)   R7        9
    C16(11)   R8        15
    C16(11)   R11       5
    C16(11)   R14       -1
    C16(11)   R16       17
    C16(11)   R18       5
    C16(11)   R19       9
    C17(13)   OBJ       -8
    C17(13)   R0        -8
    C17(13)   R1        4
    C17(13)   R3        18
    C17(13)   R4        10
    C17(13)   R5        18
    C17(13)   R6        13
    C17(13)   R8        14
    C17(13)   R10       3
    C17(13)   R13       19
    C17(13)   R14       7
    C17(13)   R16       1
    C17(13)   R17       13
    C17(13)   R20       12
    C18(15)   OBJ       -9
    C18(15)   R0        6
    C18(15)   R1        9
    C18(15)   R2        19
    C18(15)   R3        19
    C18(15)   R4        11
    C18(15)   R5        7
    C18(15)   R6        17
    C18(15)   R7        9
    C18(15)   R10       12
    C18(15)   R11       19
    C18(15)   R12       17
    C18(15)   R16       1
    C18(15)   R17       15
    C18(15)   R18       17
    C18(15)   R20       15
    C19(12)   R0        8
    C19(12)   R1        4
    C19(12)   R3        -1
    C19(12)   R4        7
    C19(12)   R6        18
    C19(12)   R8        16
    C19(12)   R13       18
    C19(12)   R14       17
    C19(12)   R17       10
    C19(12)   R18       5
    C19(12)   R19       1
    C19(12)   R20       3
    C20(1)    R2        1
    C21(1)    R3        1
    C22(1)    R4        1
    C23(1)    R5        1
    C24(1)    R6        1
    C25(1)    R7        1
    C26(1)    R8        1
    C27(1)    R9        1
    C28(1)    R10       1
    C29(1)    R11       1
    C30(1)    R12       1
    C31(1)    R13       1
    C32(1)    R14       1
    C33(1)    R15       1
    C34(1)    R16       1
    C35(1)    R17       1
    C36(1)    R18       1
    C37(1)    R19       1
    C38(1)    R20       1
    C39(1)    R21       1
RHS
    RHS1      R0        4.9839447355883756e+01
    RHS1      R1        -7.0854216293473087e+01
    RHS1      R2        94
    RHS1      R3        96
    RHS1      R4        67
    RHS1      R5        78
    RHS1      R6        82
    RHS1      R7        67
    RHS1      R8        64
    RHS1      R9        76
    RHS1      R10       85
    RHS1      R11       88
    RHS1      R12       69
    RHS1      R13       63
    RHS1      R14       61
    RHS1      R15       77
    RHS1      R16       87
    RHS1      R17       62
    RHS1      R18       71
    RHS1      R19       59
    RHS1      R20       94
    RHS1      R21       4
BOUNDS
 UP BND1      I0(11)    1
 UP BND1      I1(8)     1
 UP BND1      I2(12)    1
 UP BND1      I3(10)    1
 UP BND1      I4(13)    1
 UP BND1      I5(10)    1
 UP BND1      I6(14)    1
 UP BND1      I7(9)     1
 UP BND1      I8(10)    1
 UP BND1      I9(10)    1
 UP BND1      I10(13)   1
 UP BND1      I11(10)   1
ENDATA
